TOUR_SECTION
109
100
149
169
61
146
58
108
115
17
30
163
15
143
161
60
46
140
150
76
51
87
200
49
97
133
77
6
118
69
96
191
52
47
71
173
145
86
91
27
92
11
105
116
32
122
93
67
110
111
22
94
174
165
119
68
83
166
157
29
154
21
135
197
56
156
187
89
103
196
153
141
90
66
9
40
186
131
144
123
137
178
194
39
101
7
84
88
126
3
160
121
48
167
138
35
164
95
127
142
28
37
12
2
120
54
190
13
193
128
181
53
72
195
34
44
43
50
134
23
129
98
171
192
188
132
139
130
73
79
199
179
59
20
189
41
168
62
172
162
10
18
36
182
74
175
5
8
106
63
102
104
64
4
85
16
185
183
78
75
148
80
81
55
124
24
31
159
158
82
180
107
198
113
155
99
151
176
125
112
26
65
70
38
42
170
57
136
33
114
1
152
19
45
177
117
147
25
14
184
-1
EOF